LKHWin-3.0.5/euro_night10.tsp
NAME : euro_night10
TYPE : PAREA
DIMENSION : 10
EDGE_WEIGHT_TYPE : SPECIAL
NODE_COORD_TYPE : TWOD_COORDS
NODE_COORD_SECTION
1	2396	5284
2	2656	2938
3	4120	2278
4	4342	102
5	4384	2988
6	5136	2280
7	6634	5416
8	8598	2632
9	8898	4170
10	11738	1550
EOF
