LKHWin-3.0.5/euro_night10.output
NAME : euro-night-0000010.instance.-56997960.tour
COMMENT : Length = -56997960
COMMENT : Found by LKH [Keld Helsgaun] Tue May 28 15:04:56 2019
TYPE : TOUR
DIMENSION : 10
TOUR_SECTION
1
7
9
10
4
6
8
3
5
2
-1
EOF
